SCIP version 5.0.0 [precision: 8 byte] [memory: block] [mode: optimized] [LP solver: NONE] [GitHash: 3bbd232]
Copyright (C) 2002-2017 Konrad-Zuse-Zentrum fuer Informationstechnik Berlin (ZIB)

External codes: 
  Readline EditLine w  GNU library for command line editing (gnu.org/s/readline)
  CppAD 20160000.1     Algorithmic Differentiation of C++ algorithms developed by B. Bell (www.coin-or.org/CppAD)
  ZLIB 1.2.5           General purpose compression library by J. Gailly and M. Adler (zlib.net)
  GMP 6.1.2            GNU Multiple Precision Arithmetic Library developed by T. Granlund (gmplib.org)

user parameter file <scip.set> not found - using default parameters

read problem <../../Split_data/output/biodeg/2/1_sample_biodeg.logreg>
============

File name	:	../../Split_data/output/biodeg/2/1_sample_biodeg.logreg
Problem name 	:	1_sample_biodeg
Number of data	:	844
Number of var	:	41
The given data has linear independence

[dim=1] time: 0.029563
[dim=2] time: 0.059044
[dim=3] time: 0.094439
[dim=4] time: 0.125538
[dim=5] time: 0.157476
[dim=6] time: 0.185068
[dim=7] time: 0.21458
[dim=8] time: 0.245378
[dim=9] time: 0.27348
[dim=10] time: 0.30065
[dim=11] time: 0.32829
[dim=12] time: 0.355453
[dim=13] time: 0.3802
[dim=14] time: 0.40531
[dim=15] time: 0.430534
[dim=16] time: 0.454505
[dim=17] time: 0.479474
[dim=18] time: 0.502789
[dim=19] time: 0.525443
[dim=20] time: 0.541996
[dim=21] time: 0.558456
[dim=22] time: 0.575021
[dim=23] time: 0.591337
[dim=24] Time of forward = 0.605569sec.
AIC: 512.509
k: 23

[dim=41] time: 0.138502
[dim=40] time: 0.1854
[dim=39] time: 0.238421
[dim=38] time: 0.300932
[dim=37] time: 0.345643
[dim=36] time: 0.390044
[dim=35] time: 0.440369
[dim=34] time: 0.487834
[dim=33] time: 0.532638
[dim=32] time: 0.572889
[dim=31] time: 0.61756
[dim=30] time: 0.655702
[dim=29] time: 0.693272
[dim=28] time: 0.725182
[dim=27] time: 0.757241
[dim=26] time: 0.804411
[dim=25] time: 0.831341
[dim=24] Time of backward = 0.85789sec.
AIC: 511.042
k: 25
